analyze/results_flowersnark/final_miplib_symretope_if_extended_generating_set_cpx_v802__settings_final_nosym_norestarts__2__neos-503737.mps.gz.sol
solution status: optimal solution found
objective value:                                   50
C0363                                               1 	(obj:0)
C0399                                               1 	(obj:0)
C0422                                               1 	(obj:0)
C0451                                               1 	(obj:0)
C0527                                               1 	(obj:0)
C0555                                               1 	(obj:0)
C0616                                               1 	(obj:0)
C0688                                               1 	(obj:0)
C0750                                               1 	(obj:0)
C0784                                               1 	(obj:0)
C0837                                               1 	(obj:0)
C0870                                               1 	(obj:0)
C0906                                               1 	(obj:0)
C0952                                               1 	(obj:0)
C1048                                               1 	(obj:0)
C1074                                               1 	(obj:0)
C1121                                               1 	(obj:0)
C1185                                               1 	(obj:0)
C1245                                               1 	(obj:0)
C1283                                               1 	(obj:0)
C1318                                               1 	(obj:0)
C1380                                               1 	(obj:0)
C1411                                               1 	(obj:0)
C1454                                               1 	(obj:0)
C1509                                               1 	(obj:0)
C1546                                               1 	(obj:0)
C1558                                               1 	(obj:0)
C1564                                               1 	(obj:0)
C1626                                               1 	(obj:0)
C1689                                               1 	(obj:0)
C1747                                               1 	(obj:0)
C1782                                               1 	(obj:0)
C1823                                               1 	(obj:0)
C1890                                               1 	(obj:0)
C1925                                               1 	(obj:0)
C1992                                               1 	(obj:0)
C2019                                               1 	(obj:0)
C2091                                               1 	(obj:0)
C2131                                               1 	(obj:0)
C2144                                               1 	(obj:0)
C2179                                               1 	(obj:0)
C2243                                               1 	(obj:0)
C2267                                               1 	(obj:0)
C2303                                               1 	(obj:0)
C2357                                               1 	(obj:0)
C2412                                               1 	(obj:0)
C2465                                               1 	(obj:0)
C2486                                               1 	(obj:0)
C2510                                               1 	(obj:0)
C2578                                               1 	(obj:0)
C0096                                               1 	(obj:10)
C0097                                               1 	(obj:10)
C0098                                               1 	(obj:10)
C0099                                               1 	(obj:10)
C0100                                               1 	(obj:10)
