analyze/results_flowersnark/final_miplib_symretope_if_extended_generating_set_cpx_v802__settings_final_nosym_norestarts__2__neos-503737.mps.gz.out
FILENAME:   /home/mcs001/s132664/testsets/IP/miplib2017/neos-503737.mps.gz
SETTINGS:   settings_final_nosym_norestarts
TIMELIMIT:  7200
OUTPUTNAME: final_miplib_symretope_if_extended_generating_set_cpx_v802__settings_final_nosym_norestarts__2__
BINNAME:    bin/sbcs.linux.x86_64.gnu.opt.cpx
BASENAME:   neos-503737.mps.gz
SEED:       2
@01 /home/mcs001/s132664/testsets/IP/miplib2017/neos-503737.mps.gz ===========
@02 neos-503737.mps.gz
@03 1686656530
SCIP version 8.0.2 [precision: 8 byte] [memory: block] [mode: optimized] [LP solver: CPLEX 20.1.0.0] [GitHash: 5f0473c]
Copyright (C) 2002-2022 Konrad-Zuse-Zentrum fuer Informationstechnik Berlin (ZIB)

Symretope propagation methods - (c) Jasper van Doornmalen, Christopher Hojny.
[GitHash: 2fd0484]

reading parameter file <../settings/settings_final_nosym_norestarts.set> ...

Changed settings:
limits/time = 7200
limits/restarts = 0
misc/usesymmetry = 0
randomization/randomseedshift = 2
constraints/orbisack/sepafreq = -1
constraints/symresack/sepafreq = -1
propagating/symmetry/detectsubgroups = FALSE
propagating/symmetry/usesymretopes = FALSE
propagating/symmetry/relabelsymretopes = 0
propagating/symmetry/ofsymcomptiming = 0
constraints/symretope/sepafreq = -1
constraints/symretope/peek = FALSE


solving problem ...

original problem has 2850 variables (2500 bin, 0 int, 0 impl, 350 cont) and 500 constraints
presolving:
(round 1, fast)       0 del vars, 0 del conss, 0 add conss, 350 chg bounds, 0 chg sides, 0 chg coeffs, 0 upgd conss, 0 impls, 150 clqs
(round 2, exhaustive) 0 del vars, 0 del conss, 0 add conss, 350 chg bounds, 0 chg sides, 0 chg coeffs, 200 upgd conss, 0 impls, 150 clqs
   (0.1s) probing: 51/2550 (2.0%) - 0 fixings, 0 aggregations, 0 implications, 0 bound changes
   (0.1s) probing aborted: 50/50 successive totally useless probings
presolving (3 rounds: 3 fast, 2 medium, 2 exhaustive):
 0 deleted vars, 0 deleted constraints, 0 added constraints, 350 tightened bounds, 0 added holes, 0 changed sides, 0 changed coefficients
 0 implications, 150 cliques
presolved problem has 2850 variables (2500 bin, 0 int, 350 impl, 0 cont) and 500 constraints
    150 constraints of type <setppc>
    300 constraints of type <linear>
     50 constraints of type <logicor>
transformed objective value is always integral (scale: 1)
Presolving Time: 0.13

 time | node  | left  |LP iter|LP it/n|mem/heur|mdpt |vars |cons |rows |cuts |sepa|confs|strbr|  dualbound   | primalbound  |  gap   | compl. 
p 0.2s|     1 |     0 |     0 |     - |  clique|   0 |2850 | 500 | 500 |   0 |  0 |   0 |   0 | 0.000000e+00 | 5.030000e+03 |    Inf | unknown
p 0.2s|     1 |     0 |     0 |     - |   locks|   0 |2850 | 504 | 500 |   0 |  0 |   4 |   0 | 0.000000e+00 | 3.040000e+02 |    Inf | unknown
  0.2s|     1 |     0 |     1 |     - |    33M |   0 |2850 | 514 | 500 |   0 |  0 |  14 |   0 | 5.000000e+01 | 3.040000e+02 | 508.00%| unknown
  0.2s|     1 |     0 |     1 |     - |    33M |   0 |2850 | 514 | 500 |   0 |  0 |  14 |   0 | 5.000000e+01 | 3.040000e+02 | 508.00%| unknown
  0.3s|     1 |     0 |   198 |     - |    35M |   0 |2850 | 514 | 506 |   6 |  1 |  14 |   0 | 5.000000e+01 | 3.040000e+02 | 508.00%| unknown
  0.4s|     1 |     0 |   341 |     - |    35M |   0 |2850 | 514 | 508 |   8 |  2 |  14 |   0 | 5.000000e+01 | 3.040000e+02 | 508.00%| unknown
  0.4s|     1 |     0 |   491 |     - |    35M |   0 |2850 | 514 | 516 |  16 |  3 |  14 |   0 | 5.000000e+01 | 3.040000e+02 | 508.00%| unknown
  0.5s|     1 |     0 |   628 |     - |    35M |   0 |2850 | 514 | 521 |  21 |  4 |  14 |   0 | 5.000000e+01 | 3.040000e+02 | 508.00%| unknown
  0.5s|     1 |     0 |   731 |     - |    35M |   0 |2850 | 514 | 524 |  24 |  5 |  14 |   0 | 5.000000e+01 | 3.040000e+02 | 508.00%| unknown
  0.5s|     1 |     0 |   924 |     - |    35M |   0 |2850 | 514 | 527 |  27 |  6 |  14 |   0 | 5.000000e+01 | 3.040000e+02 | 508.00%| unknown
  0.6s|     1 |     0 |  1073 |     - |    35M |   0 |2850 | 514 | 532 |  32 |  7 |  14 |   0 | 5.000000e+01 | 3.040000e+02 | 508.00%| unknown
  0.6s|     1 |     0 |  1220 |     - |    35M |   0 |2850 | 514 | 535 |  35 |  8 |  14 |   0 | 5.000000e+01 | 3.040000e+02 | 508.00%| unknown
  0.7s|     1 |     0 |  1373 |     - |    36M |   0 |2850 | 514 | 544 |  44 |  9 |  14 |   0 | 5.000000e+01 | 3.040000e+02 | 508.00%| unknown
  0.7s|     1 |     0 |  1548 |     - |    36M |   0 |2850 | 514 | 550 |  50 | 10 |  14 |   0 | 5.000000e+01 | 3.040000e+02 | 508.00%| unknown
  0.8s|     1 |     0 |  1702 |     - |    36M |   0 |2850 | 514 | 560 |  61 | 11 |  14 |   0 | 5.000000e+01 | 3.040000e+02 | 508.00%| unknown
 time | node  | left  |LP iter|LP it/n|mem/heur|mdpt |vars |cons |rows |cuts |sepa|confs|strbr|  dualbound   | primalbound  |  gap   | compl. 
o 0.9s|     1 |     0 |  3255 |     - |feaspump|   0 |2850 | 513 | 560 |  61 | 11 |  14 |   0 | 5.000000e+01 | 6.700000e+01 |  34.00%| unknown
  1.1s|     1 |     0 |  5086 |     - |    36M |   0 |2850 | 513 | 560 |  61 | 11 |  14 |   0 | 5.000000e+01 | 6.700000e+01 |  34.00%| unknown
  1.2s|     1 |     0 |  5231 |     - |    36M |   0 |2850 | 513 | 565 |  66 | 12 |  14 |   0 | 5.000000e+01 | 6.700000e+01 |  34.00%| unknown
  1.4s|     1 |     2 |  5231 |     - |    36M |   0 |2850 | 513 | 565 |  66 | 13 |  14 |  10 | 5.000000e+01 | 6.700000e+01 |  34.00%| unknown
* 5.1s|    27 |    26 | 11059 | 354.3 |strongbr|  24 |2850 | 513 | 510 |  70 |  1 |  14 |  92 | 5.000000e+01 | 5.500000e+01 |  10.00%| unknown
* 6.0s|    31 |    25 | 12224 | 345.9 |strongbr|  24 |2850 | 524 | 510 |  70 |  4 |  25 | 184 | 5.000000e+01 | 5.400000e+01 |   8.00%| unknown
* 9.1s|    43 |    25 | 15259 | 319.3 |strongbr|  26 |2850 | 674 | 510 |  70 |  4 | 175 | 495 | 5.000000e+01 | 5.300000e+01 |   6.00%| unknown
*10.7s|    52 |    27 | 17726 | 311.4 |strongbr|  26 |2850 | 810 | 510 |  70 |  3 | 321 | 664 | 5.000000e+01 | 5.200000e+01 |   4.00%| unknown
 12.2s|   100 |    55 | 26575 | 249.8 |    46M |  28 |2850 | 984 | 510 |  71 |  1 | 505 | 729 | 5.000000e+01 | 5.200000e+01 |   4.00%| unknown
*12.4s|   106 |     0 | 27787 | 247.0 |strongbr|  28 |2850 | 814 | 510 |  71 |  1 | 505 | 729 | 5.000000e+01 | 5.000000e+01 |   0.00%| 100.00%

SCIP Status        : problem is solved [optimal solution found]
Solving Time (sec) : 12.41
Solving Nodes      : 106
Primal Bound       : +5.00000000000000e+01 (8 solutions)
Dual Bound         : +5.00000000000000e+01
Gap                : 0.00 %
SCIP Status        : problem is solved [optimal solution found]
Total Time         :      12.42
  solving          :      12.41
  presolving       :       0.13 (included in solving)
  reading          :       0.01
  copying          :       0.10 (11 #copies) (minimal 0.01, maximal 0.01, average 0.01)
Original Problem   :
  Problem name     : neos-503737
  Variables        : 2850 (2500 binary, 0 integer, 0 implicit integer, 350 continuous)
  Constraints      : 500 initial, 500 maximal
  Objective        : minimize, 350 non-zeros (abs.min = 1, abs.max = 100)
Presolved Problem  :
  Problem name     : t_neos-503737
  Variables        : 2850 (2500 binary, 0 integer, 350 implicit integer, 0 continuous)
  Constraints      : 500 initial, 986 maximal
  Objective        : minimize, 350 non-zeros (abs.min = 1, abs.max = 100)
  Nonzeros         : 16850 constraint, 7000 clique table
Presolvers         :   ExecTime  SetupTime  Calls  FixedVars   AggrVars   ChgTypes  ChgBounds   AddHoles    DelCons    AddCons   ChgSides   ChgCoefs
  boundshift       :       0.00       0.00      0          0          0          0          0          0          0          0          0          0
  convertinttobin  :       0.00       0.00      0          0          0          0          0          0          0          0          0          0
  domcol           :       0.00       0.00      1          0          0          0          0          0          0          0          0          0
  dualagg          :       0.00       0.00      0          0          0          0          0          0          0          0          0          0
  dualcomp         :       0.00       0.00      0          0          0          0          0          0          0          0          0          0
  dualinfer        :       0.00       0.00      0          0          0          0          0          0          0          0          0          0
  dualsparsify     :       0.00       0.00      1          0          0          0          0          0          0          0          0          0
  gateextraction   :       0.00       0.00      1          0          0          0          0          0          0          0          0          0
  implics          :       0.00       0.00      2          0          0          0          0          0          0          0          0          0
  inttobinary      :       0.00       0.00      0          0          0          0          0          0          0          0          0          0
  qpkktref         :       0.00       0.00      0          0          0          0          0          0          0          0          0          0
  redvub           :       0.00       0.00      0          0          0          0          0          0          0          0          0          0
  sparsify         :       0.10       0.00      1          0          0          0          0          0          0          0          0          0
  stuffing         :       0.00       0.00      0          0          0          0          0          0          0          0          0          0
  trivial          :       0.00       0.00      3          0          0          0          0          0          0          0          0          0
  tworowbnd        :       0.00       0.00      0          0          0          0          0          0          0          0          0          0
  dualfix          :       0.00       0.00      3          0          0          0          0          0          0          0          0          0
  genvbounds       :       0.00       0.00      0          0          0          0          0          0          0          0          0          0
  probing          :       0.00       0.00      1          0          0          0          0          0          0          0          0          0
  pseudoobj        :       0.00       0.00      0          0          0          0          0          0          0          0          0          0
  symmetry         :       0.00       0.00      0          0          0          0          0          0          0          0          0          0
  vbounds          :       0.00       0.00      1          0          0          0          0          0          0          0          0          0
  knapsack         :       0.00       0.00      0          0          0          0          0          0          0          0          0          0
  setppc           :       0.00       0.00      3          0          0          0          0          0          0          0          0          0
  linear           :       0.01       0.00      5          0          0          0        350          0          0          0          0          0
  logicor          :       0.00       0.00      3          0          0          0          0          0          0          0          0          0
  bounddisjunction :       0.00       0.00      0          0          0          0          0          0          0          0          0          0
  benders          :       0.00       0.00      0          0          0          0          0          0          0          0          0          0
  components       :       0.00       0.00      1          0          0          0          0          0          0          0          0          0
  root node        :          -          -      -        295          -          -        845          -          -          -          -          -
Constraints        :     Number  MaxNumber  #Separate #Propagate    #EnfoLP    #EnfoRelax  #EnfoPS    #Check   #ResProp    Cutoffs    DomReds       Cuts    Applied      Conss   Children
  benderslp        :          0          0          0          0        196          0          0         41          0          0          0          0          0          0          0
  integral         :          0          0          0          0        196          0          0         41          0          3        315          0          0        487        170
  knapsack         :          0+         3          0       2518          0          0          0          0         24          0         94          0          0          0          0
  setppc           :        150        150         12       6648          0          0          0         33      47896         22       4610          0          0          0          0
  linear           :        300+       301         12       6623          0          0          0          8       1374          2        210          0          0          0          0
  logicor          :         50+       491         12       2595          0          0          0          8         53          0         23          0          0          0          0
  bounddisjunction :          0+        41          0        210          0          0          0          0          1          0          0          0          0          0          0
  benders          :          0          0          0          0          0          0          0          9          0          0          0          0          0          0          0
  countsols        :          0          0          0          0          0          0          0          9          0          0          0          0          0          0          0
  components       :          0          0          0          0          0          0          0          0          0          0          0          0          0          0          0
Constraint Timings :  TotalTime  SetupTime   Separate  Propagate     EnfoLP     EnfoPS     EnfoRelax   Check    ResProp    SB-Prop
  benderslp        :       0.00       0.00       0.00       0.00       0.00       0.00       0.00       0.00       0.00       0.00
  integral         :       6.72       0.00       0.00       0.00       6.71       0.00       0.00       0.00       0.00       0.00
  knapsack         :       0.00       0.00       0.00       0.00       0.00       0.00       0.00       0.00       0.00       0.00
  setppc           :       0.14       0.00       0.00       0.06       0.00       0.00       0.00       0.00       0.01       0.07
  linear           :       0.03       0.00       0.00       0.01       0.00       0.00       0.00       0.00       0.00       0.02
  logicor          :       0.02       0.00       0.00       0.01       0.00       0.00       0.00       0.00       0.00       0.01
  bounddisjunction :       0.00       0.00       0.00       0.00       0.00       0.00       0.00       0.00       0.00       0.00
  benders          :       0.00       0.00       0.00       0.00       0.00       0.00       0.00       0.00       0.00       0.00
  countsols        :       0.00       0.00       0.00       0.00       0.00       0.00       0.00       0.00       0.00       0.00
  components       :       0.00       0.00       0.00       0.00       0.00       0.00       0.00       0.00       0.00       0.00
Propagators        : #Propagate   #ResProp    Cutoffs    DomReds
  dualfix          :          6          0          0          0
  genvbounds       :          0          0          0          0
  nlobbt           :          0          0          0          0
  obbt             :          0          0          0          0
  probing          :          0          0          0          0
  pseudoobj        :        685          0          0        500
  redcost          :        509          0          0       4892
  rootredcost      :          5          0          0         95
  symmetry         :          0          0          0          0
  vbounds          :       1585          0          0          0
Propagator Timings :  TotalTime  SetupTime   Presolve  Propagate    ResProp    SB-Prop
  dualfix          :       0.00       0.00       0.00       0.00       0.00       0.00
  genvbounds       :       0.00       0.00       0.00       0.00       0.00       0.00
  nlobbt           :       0.00       0.00       0.00       0.00       0.00       0.00
  obbt             :       0.00       0.00       0.00       0.00       0.00       0.00
  probing          :       0.00       0.00       0.00       0.00       0.00       0.00
  pseudoobj        :       0.01       0.00       0.00       0.01       0.00       0.00
  redcost          :       0.04       0.00       0.00       0.04       0.00       0.00
  rootredcost      :       0.00       0.00       0.00       0.00       0.00       0.00
  symmetry         :       0.00       0.00       0.00       0.00       0.00       0.00
  vbounds          :       0.00       0.00       0.00       0.00       0.00       0.00
Conflict Analysis  :       Time      Calls    Success    DomReds  Conflicts   Literals    Reconvs ReconvLits   Dualrays   Nonzeros   LP Iters   (pool size: [10000,10000])
  propagation      :       0.00         24         22          -        182      144.8          0        0.0          -          -          -
  infeasible LP    :       0.02         12         12          -        206      225.4          1      130.0          3      385.3          0
  bound exceed. LP :       0.99        244         60          -       1347      477.1          0        0.0          1      350.0       2367
  strong branching :       0.00          0          0          -          0        0.0          0        0.0          -          -          0
  pseudo solution  :       0.00          0          0          -          0        0.0          0        0.0          -          -          -
  applied globally :       0.02          -          -          0        501      147.3          -          -          4          -          -
  applied locally  :          -          -          -          0          0        0.0          -          -          0          -          -
Separators         :   ExecTime  SetupTime      Calls  RootCalls    Cutoffs    DomReds  FoundCuts ViaPoolAdd  DirectAdd    Applied ViaPoolApp  DirectApp      Conss
  cut pool         :       0.00          -         35         24          -          -        120         83          -          -          -          -          -    (maximal pool size:        120)
  aggregation      :       0.06       0.00         14         12          0          0          0          0          0          0          0          0          0
  > cmir           :          -          -          -          -          -          -          -          0          0          0          0          0          -
  > flowcover      :          -          -          -          -          -          -          -          0          0          0          0          0          -
  > knapsackcover  :          -          -          -          -          -          -          -          0          0          0          0          0          -
  cgmip            :       0.00       0.00          0          0          0          0          0          0          0          0          0          0          0
  clique           :       0.02       0.00         12         12          0          0         83         53          0         45         45          0          0
  closecuts        :       0.00       0.00          0          0          0          0          0          0          0          0          0          0          0
  convexproj       :       0.00       0.00          0          0          0          0          0          0          0          0          0          0          0
  disjunctive      :       0.00       0.00          0          0          0          0          0          0          0          0          0          0          0
  eccuts           :       0.00       0.00          0          0          0          0          0          0          0          0          0          0          0
  gauge            :       0.00       0.00          0          0          0          0          0          0          0          0          0          0          0
  gomory           :       0.06       0.00         12         10          0          0          1          0          0          0          0          0          0
  > gomorymi       :          -          -          -          -          -          -          -          0          0          0          0          0          -
  > strongcg       :          -          -          -          -          -          -          -          0          0          0          0          0          -
  impliedbounds    :       0.00       0.00         14         12          0          0          0          0          0          0          0          0          0
  interminor       :       0.00       0.00          0          0          0          0          0          0          0          0          0          0          0
  intobj           :       0.00       0.00          0          0          0          0          0          0          0          0          0          0          0
  mcf              :       0.00       0.00          1          1          0          0          0          0          0          0          0          0          0
  minor            :       0.00       0.00          0          0          0          0          0          0          0          0          0          0          0
  mixing           :       0.00       0.00         14         12          0          0          0          0          0          0          0          0          0
  oddcycle         :       0.00       0.00          0          0          0          0          0          0          0          0          0          0          0
  rapidlearning    :       0.27       0.00          7          1          0          0          0          0          0          0          0          0          0
  rlt              :       0.00       0.00         10         10          0          0          0          0          0          0          0          0          0
  zerohalf         :       0.09       0.00         14         12          0          0         39         30          3         26         23          3          0
Cutselectors       :   ExecTime  SetupTime      Calls  RootCalls   Selected     Forced   Filtered  RootSelec   RootForc   RootFilt 
  hybrid           :       0.00       0.00         15         12         71          0         15         66          0         15
Pricers            :   ExecTime  SetupTime      Calls       Vars
  problem variables:       0.00          -          0          0
Branching Rules    :   ExecTime  SetupTime   BranchLP  BranchExt   BranchPS    Cutoffs    DomReds       Cuts      Conss   Children
  allfullstrong    :       0.00       0.00          0          0          0          0          0          0          0          0
  cloud            :       0.00       0.00          0          0          0          0          0          0          0          0
  distribution     :       0.00       0.00          0          0          0          0          0          0          0          0
  fullstrong       :       0.00       0.00          0          0          0          0          0          0          0          0
  inference        :       0.00       0.00          0          0          0          0          0          0          0          0
  leastinf         :       0.00       0.00          0          0          0          0          0          0          0          0
  lookahead        :       0.00       0.00          0          0          0          0          0          0          0          0
  mostinf          :       0.00       0.00          0          0          0          0          0          0          0          0
  multaggr         :       0.00       0.00          0          0          0          0          0          0          0          0
  nodereopt        :       0.00       0.00          0          0          0          0          0          0          0          0
  pscost           :       0.00       0.00          0          0          0          0          0          0          0          0
  random           :       0.00       0.00          0          0          0          0          0          0          0          0
  relpscost        :       6.71       0.00        196          0          0          3        315          0        488        170
  vanillafullstrong:       0.00       0.00          0          0          0          0          0          0          0          0
Primal Heuristics  :   ExecTime  SetupTime      Calls      Found       Best
  LP solutions     :       0.00          -          -          0          0
  relax solutions  :       0.00          -          -          0          0
  pseudo solutions :       0.00          -          -          0          0
  strong branching :       0.01          -          -          5          5
  actconsdiving    :       0.00       0.00          0          0          0
  adaptivediving   :       0.00       0.00          0          0          0
  alns             :       0.25       0.00          3          0          0
  bound            :       0.00       0.00          0          0          0
  clique           :       0.02       0.00          1          1          1
  coefdiving       :       0.00       0.00          0          0          0
  completesol      :       0.00       0.00          0          0          0
  conflictdiving   :       0.16       0.00          1          0          0
  crossover        :       0.00       0.00          0          0          0
  dins             :       0.00       0.00          0          0          0
  distributiondivin:       0.00       0.00          0          0          0
  dps              :       0.00       0.00          0          0          0
  dualval          :       0.00       0.00          0          0          0
  farkasdiving     :       0.00       0.00          0          0          0
  feaspump         :       0.14       0.00          1          1          1
  fixandinfer      :       0.00       0.00          0          0          0
  fracdiving       :       0.00       0.00          0          0          0
  gins             :       0.00       0.00          0          0          0
  guideddiving     :       0.00       0.00          0          0          0
  indicator        :       0.00       0.00          0          0          0
  intdiving        :       0.00       0.00          0          0          0
  intshifting      :       0.00       0.00          0          0          0
  linesearchdiving :       0.00       0.00          0          0          0
  localbranching   :       0.00       0.00          0          0          0
  locks            :       0.01       0.00          1          1          1
  lpface           :       2.67       0.00          1          0          0
  mpec             :       0.00       0.00          0          0          0
  multistart       :       0.00       0.00          0          0          0
  mutation         :       0.00       0.00          0          0          0
  nlpdiving        :       0.00       0.00          0          0          0
  objpscostdiving  :       0.00       0.00          0          0          0
  octane           :       0.00       0.00          0          0          0
  ofins            :       0.00       0.00          0          0          0
  oneopt           :       0.00       0.00          6          0          0
  padm             :       0.00       0.00          0          0          0
  proximity        :       0.00       0.00          0          0          0
  pscostdiving     :       0.00       0.00          0          0          0
  randrounding     :       0.08       0.00         23          0          0
  rens             :       0.04       0.00          1          0          0
  reoptsols        :       0.00       0.00          0          0          0
  repair           :       0.00       0.00          0          0          0
  rins             :       0.00       0.00          0          0          0
  rootsoldiving    :       0.00       0.00          0          0          0
  rounding         :       0.04       0.00        163          0          0
  shiftandpropagate:       0.00       0.00          0          0          0
  shifting         :       0.02       0.00         26          0          0
  simplerounding   :       0.00       0.00          0          0          0
  subnlp           :       0.00       0.00          0          0          0
  trivial          :       0.00       0.00          2          0          0
  trivialnegation  :       0.00       0.00          0          0          0
  trustregion      :       0.00       0.00          0          0          0
  trysol           :       0.00       0.00          0          0          0
  twoopt           :       0.00       0.00          0          0          0
  undercover       :       0.00       0.00          0          0          0
  vbounds          :       0.02       0.00          1          0          0
  veclendiving     :       0.00       0.00          0          0          0
  zeroobj          :       0.00       0.00          0          0          0
  zirounding       :       0.00       0.00         85          0          0
  other solutions  :          -          -          -          0          -
LP                 :       Time      Calls Iterations  Iter/call   Iter/sec  Time-0-It Calls-0-It    ItLimit
  primal LP        :       0.05          3          0       0.00       0.00       0.05          3
  dual LP          :       1.22        327      24403     107.98   20068.67       0.03        101
  lex dual LP      :       0.00          0          0       0.00          -
  barrier LP       :       0.00          0          0       0.00          -       0.00          0
  resolve instable :       0.00          0          0       0.00          -
  diving/probing LP:       0.35          6       3384     564.00    9636.61
  strong branching :       4.94        730     114551     156.92   23190.94          -          -         80
    (at root node) :          -         10       2965     296.50          -
  conflict analysis:       0.25        237       2367       9.99    9314.79
B&B Tree           :
  number of runs   :          1
  nodes            :        106 (85 internal, 21 leaves)
  feasible leaves  :          0
  infeas. leaves   :          4
  objective leaves :         17
  nodes (total)    :        106 (85 internal, 21 leaves)
  nodes left       :          0
  max depth        :         28
  max depth (total):         28
  backtracks       :          7 (6.6%)
  early backtracks :          0 (0.0%)
  nodes exc. ref.  :          0 (0.0%)
  delayed cutoffs  :          0
  repropagations   :         24 (44 domain reductions, 0 cutoffs)
  avg switch length:       3.06
  switching time   :       0.05
Root Node          :
  First LP value   : +5.00000000000001e+01
  First LP Iters   :          1 (23.31 Iter/sec)
  First LP Time    :       0.04
  Final Dual Bound : +5.00000000000001e+01
  Final Root Iters :       1847
  Root LP Estimate : +5.02690347301292e+01
Solution           :
  Solutions found  :          8 (8 improvements)
  First Solution   : +5.03000000000000e+03   (in run 1, after 1 nodes, 0.15 seconds, depth 43, found by <clique>)
  Gap First Sol.   :   infinite
  Gap Last Sol.    :       0.00 %
  Primal Bound     : +5.00000000000000e+01   (in run 1, after 106 nodes, 12.40 seconds, depth 25, found by <relaxation>)
  Dual Bound       : +5.00000000000000e+01
  Gap              :       0.00 %
Integrals          :      Total       Avg%
  primal-dual      :     233.90      18.85
  primal-ref       :          -          - (not evaluated)
  dual-ref         :          -          - (not evaluated)
written solution information to file <results/final_miplib_symretope_if_extended_generating_set_cpx_v802__settings_final_nosym_norestarts__2__neos-503737.mps.gz.sol>
@04 1686656542
